(declare-const X String)
; LOGLiveHost\x3ALOGHandyhttp\x3A\x2F\x2Fwww\.searchinweb\.com\x2Fsearch\.php\?said=bar
(assert (str.in_re X (str.to_re "LOGLiveHost:LOGHandyhttp://www.searchinweb.com/search.php?said=bar\u{a}")))
(check-sat)

(exit)
